set Stages := FirstStage SecondStage ; 
set Nodes := RootNode 
Node1 
Node2 
; 
param NodeStage := RootNode FirstStage 
Node1 SecondStage 
Node2 SecondStage 
; 
set Children[RootNode] := Node1 
Node2 
; 
param ConditionalProbability := RootNode 1.0 
Node1 0.5 
Node2 0.5 
; 
set Scenarios := Scenario1 
Scenario2 
; 
param ScenarioLeafNode := Scenario1  Node1 
Scenario2  Node2 
; 
set StageVariables[FirstStage] := z1[*]; 
set StageVariables[SecondStage] := p_kauf[*] 
 p_bat_Nutz[*] 
 p_bat_Lade[*] 
 p_einsp[*] 
 bat[*] 
 p_Nutz[*]; 
param StageCost := FirstStage FirstStageCost 
 SecondStage SecondStageCost;